NAME : random116.829.tour
COMMENT : Length = 829
COMMENT : Found by LKH [Keld Helsgaun] Thu Sep 26 17:30:35 2024
TYPE : TOUR
DIMENSION : 116
TOUR_SECTION
1
96
33
71
19
23
15
61
14
48
78
4
107
8
58
9
86
72
18
104
35
41
102
80
29
103
51
109
88
69
24
67
36
93
16
21
68
100
82
112
27
110
34
17
22
13
45
101
2
62
57
95
84
65
90
74
83
28
11
46
47
54
79
63
85
49
50
116
40
10
31
38
59
73
64
92
76
12
52
115
89
37
77
5
53
105
6
81
20
98
114
91
3
44
70
97
75
94
43
66
108
39
30
56
60
32
7
111
87
106
26
25
42
55
113
99
-1
EOF
